 vasp.6.4.2 20Jul23 (build Mar  9 2024 05:55:09) complex
 executed on             LinuxGNU date 2025.02.08  18:11:52

 INCAR:
   SYSTEM = hBN
   PREC = Normal
   NWRITE = 2
   ISTART = 0
   ICHARG = 2
   LWAVE = F
   LCHARG = F
   LAECHG = F
   ALGO = Fast
   ISYM = 1
   LREAL = F
   NSW = 0
   EDIFF = 1E-5
   EDIFFG = -1E-2
   IBRION = -1
   ISIF = 2
   POTIM = 0.5
   ENCUT = 500
   ISMEAR = 0
   SIGMA = 0.1
   ISPIN = 2
   IVDW = 11
   NCORE = 4

 POTCAR:    PAW_PBE B 06Sep2000
 POTCAR:    PAW_PBE N 08Apr2002
|           W    W    AA    RRRRR   N    N  II  N    N   GGGG   !!!           |
|           W    W   A  A   R    R  NN   N  II  NN   N  G    G  !!!           |
|           W    W  A    A  R    R  N N  N  II  N N  N  G       !!!           |
|           W WW W  AAAAAA  RRRRR   N  N N  II  N  N N  G  GGG   !            |
|           WW  WW  A    A  R   R   N   NN  II  N   NN  G    G                |
|           W    W  A    A  R    R  N    N  II  N    N   GGGG   !!!           |
|     You use a magnetic or noncollinear calculation, but did not specify     |
|     the initial magnetic moment with the MAGMOM tag. Note that a            |
|     default of 1 will be used for all atoms. This ferromagnetic setup       |
|     may break the symmetry of the crystal, in particular it may rule        |
|     out finding an antiferromagnetic solution. Thence, we recommend         |
|     setting the initial magnetic moment manually or verifying carefully     |
|     that this magnetic setup is desired.                                    |

 POTCAR:    PAW_PBE B 06Sep2000
   VRHFIN =B: s2p1

   TITEL  = PAW_PBE B 06Sep2000
   POMASS =   10.811; ZVAL   =    3.000    mass and valenz
   ENMAX  =  318.614; ENMIN  =  238.960 eV

 POTCAR:    PAW_PBE N 08Apr2002
   VRHFIN =N: s2p3

   TITEL  = PAW_PBE N 08Apr2002
   POMASS =   14.001; ZVAL   =    5.000    mass and valenz
   ENMAX  =  400.000; ENMIN  =  300.000 eV

  PAW_PBE B 06Sep2000                   :
  PAW_PBE N 08Apr2002                   :

 POSCAR:  B  N
  positions in cartesian coordinates
 exchange correlation table for  LEXCH =        8
   RHO(1)=    0.500       N(1)  =     2000
   RHO(2)=  100.500       N(2)  =     4000

 ion  position               nearest neighbor table
   1  0.083  0.167  0.128-  30 1.45  17 1.45  29 1.45
   2  0.583  0.417  0.128-  31 1.45  25 1.45  18 1.45
   3  0.583  0.917  0.128-  19 1.45  22 1.45  23 1.45
   4  0.583  0.167  0.128-  23 1.45  26 1.45  31 1.45
   5  0.833  0.917  0.128-  32 1.45  19 1.45  17 1.45
   6  0.333  0.917  0.128-  22 1.45  27 1.45  26 1.45
   7  0.333  0.667  0.128-  28 1.45  22 1.45  24 1.66
   8  0.833  0.167  0.128-  17 1.45  23 1.45  20 1.45
   9  0.333  0.417  0.128-  25 1.45  29 1.45  24 1.66
  10  0.833  0.417  0.128-  20 1.45  31 1.45  21 1.45
  11  0.083  0.917  0.128-  27 1.45  32 1.45  30 1.45
  12  0.083  0.667  0.128-  28 1.45  21 1.45  27 1.45
  13  0.833  0.667  0.128-  21 1.45  18 1.45  32 1.45
  14  0.083  0.417  0.128-  29 1.45  20 1.45  28 1.45
  15  0.333  0.167  0.128-  26 1.45  30 1.45  25 1.45
  16  0.583  0.667  0.128-  18 1.45  19 1.45  24 1.66
  17  0.917  0.083  0.128-   8 1.45   1 1.45   5 1.45
  18  0.667  0.583  0.128-  16 1.45  13 1.45   2 1.45
  19  0.667  0.833  0.128-   3 1.45   5 1.45  16 1.45
  20  0.917  0.333  0.128-  10 1.45  14 1.45   8 1.45
  21  0.917  0.583  0.128-  13 1.45  12 1.45  10 1.45
  22  0.417  0.833  0.128-   6 1.45   3 1.45   7 1.45
  23  0.667  0.083  0.128-   4 1.45   8 1.45   3 1.45
  24  0.417  0.583  0.182-   7 1.66   9 1.66  16 1.66
  25  0.417  0.333  0.128-   9 1.45   2 1.45  15 1.45
  26  0.417  0.083  0.128-  15 1.45   4 1.45   6 1.45
  27  0.167  0.833  0.128-  11 1.45   6 1.45  12 1.45
  28  0.167  0.583  0.128-  12 1.45   7 1.45  14 1.45
  29  0.167  0.333  0.128-  14 1.45   9 1.45   1 1.45
  30  0.167  0.083  0.128-   1 1.45  15 1.45  11 1.45
  31  0.667  0.333  0.128-   2 1.45  10 1.45   4 1.45
  32  0.917  0.833  0.128-   5 1.45  11 1.45  13 1.45

  LATTYP: Found a hexagonal cell.
 ALAT       =    10.0497129125
 C/A-ratio  =     1.4925799504

  Lattice vectors:

 A1 = (   5.0248564562,  -8.7033066829,   0.0000000000)
 A2 = (   5.0248564562,   8.7033066829,   0.0000000000)
 A3 = (   0.0000000000,   0.0000000000,  15.0000000000)

Analysis of symmetry for initial positions (statically):
 Subroutine PRICEL returns:
 Original cell was already a primitive cell.

 Routine SETGRP: Setting up the symmetry group for a
 hexagonal supercell.

 Subroutine GETGRP returns: Found  6 space group operations
 (whereof  2 operations were pure point group operations)
 out of a pool of 24 trial point group operations.

The static configuration has the point symmetry C_1h.
 The point group associated with its full space group is C_3v.

Analysis of symmetry for dynamics (positions and initial velocities):
 Subroutine PRICEL returns:
 Original cell was already a primitive cell.

[...]

The dynamic configuration has the point symmetry C_1h.
 The point group associated with its full space group is C_3v.

Analysis of structural, dynamic, and magnetic symmetry:
 Subroutine PRICEL returns:
 Original cell was already a primitive cell.

 Routine SETGRP: Setting up the symmetry group for a
 hexagonal supercell.

 Subroutine GETGRP returns: Found  6 space group operations
 (whereof  2 operations were pure point group operations)
 out of a pool of 24 trial point group operations.

The overall configuration has the point symmetry C_1h.
 The point group associated with its full space group is C_3v.

 Subroutine INISYM returns: Found  6 space group operations
 (whereof  2 operations are pure point group operations),
 and found     1 'primitive' translations

                                     Primitive cell

  volume of cell :    1311.9860

  direct lattice vectors                    reciprocal lattice vectors
     5.024856456 -8.703306683  0.000000000     0.099505330 -0.057449429  0.000000000
     5.024856456  8.703306683  0.000000000     0.099505330  0.057449429 -0.000000000
     0.000000000  0.000000000 15.000000000    -0.000000000  0.000000000  0.066666667

  length of vectors
    10.049712912 10.049712912 15.000000000     0.114898858  0.114898858  0.066666667

  position of ions in fractional coordinates (direct lattice)
     0.083333333  0.166666667  0.128454417
     0.583333333  0.416666667  0.128454417
     0.583333333  0.916666667  0.128454417
     0.583333333  0.166666667  0.128454417
     0.833333333  0.916666667  0.128454417
     0.333333333  0.916666667  0.128454417
     0.333333333  0.666666667  0.128454417
     0.833333333  0.166666667  0.128454417
     0.333333333  0.416666667  0.128454417
     0.833333333  0.416666667  0.128454417
     0.083333333  0.916666667  0.128454417
     0.083333333  0.666666667  0.128454417
     0.833333333  0.666666667  0.128454417
     0.083333333  0.416666667  0.128454417
     0.333333333  0.166666667  0.128454417
     0.583333333  0.666666667  0.128454417
     0.916666667  0.083333333  0.128454417
     0.666666667  0.583333333  0.128454417
     0.666666667  0.833333333  0.128454417
     0.916666667  0.333333333  0.128454417
     0.916666667  0.583333333  0.128454417
     0.416666667  0.833333333  0.128454417
     0.666666667  0.083333333  0.128454417
     0.416666667  0.583333333  0.181787750
     0.416666667  0.333333333  0.128454417
     0.416666667  0.083333333  0.128454417
     0.166666667  0.833333333  0.128454417
     0.166666667  0.583333333  0.128454417
     0.166666667  0.333333333  0.128454417
     0.166666667  0.083333333  0.128454417
     0.666666667  0.333333333  0.128454417
     0.916666667  0.833333333  0.128454417

  ion indices of the primitive-cell ions
   primitive index   ion index
                 1           1
                 2           2
                 3           3
                 4           4
                 5           5
                 6           6
                 7           7
                 8           8
                 9           9
                10          10
                11          11
                12          12
                13          13
                14          14
                15          15
                16          16
                17          17
                18          18
                19          19
                20          20
                21          21
                22          22
                23          23
                24          24
                25          25
                26          26
                27          27
                28          28
                29          29
                30          30
                31          31
                32          32

 KPOINTS: k-points

Automatic generation of k-mesh.
 Grid dimensions read from file:
 generate k-points for:    3    3    1

 Generating k-lattice:

  Cartesian coordinates                     Fractional coordinates (reciprocal lattice)
     0.033168443 -0.019149810  0.000000000     0.333333333  0.000000000  0.000000000
     0.033168443  0.019149810 -0.000000000     0.000000000  0.333333333  0.000000000
    -0.000000000  0.000000000  0.066666667     0.000000000  0.000000000  1.000000000

  Length of vectors
     0.038299619  0.038299619  0.066666667

  Shift w.r.t. Gamma in fractional coordinates (k-lattice)
     0.000000000  0.000000000  0.000000000

 Subroutine IBZKPT returns following result:

 Found      3 irreducible k-points:

 Following reciprocal coordinates:
            Coordinates               Weight
  0.000000  0.000000  0.000000      1.000000
  0.333333  0.000000  0.000000      6.000000
  0.333333  0.333333  0.000000      2.000000

 Following cartesian coordinates:
            Coordinates               Weight
  0.000000  0.000000  0.000000      1.000000
  0.033168 -0.019150  0.000000      6.000000
  0.066337 -0.000000  0.000000      2.000000

 SYSTEM =  hBN
 POSCAR =   B  N

 Startparameter for this run:
   NWRITE =      2    write-flag & timer
   PREC   = normal    normal or accurate (medium, high low for compatibility)
   ISTART =      0    job   : 0-new  1-cont  2-samecut
   ICHARG =      2    charge: 1-file 2-atom 10-const
   ISPIN  =      2    spin polarized calculation?
   LNONCOLLINEAR =      F non collinear calculations
   LSORBIT =      F    spin-orbit coupling
   INIWAV =      1    electr: 0-lowe 1-rand  2-diag
   LASPH  =      F    aspherical Exc in radial PAW
 Electronic Relaxation 1
   ENCUT  =  500.0 eV  36.75 Ry    6.06 a.u.  18.32 18.32 27.35*2*pi/ulx,y,z
   ENINI  =  500.0     initial cutoff
   ENAUG  =  627.1 eV  augmentation charge cutoff
   NELM   =     60;   NELMIN=  2; NELMDL= -5     # of ELM steps
   EDIFF  = 0.1E-04   stopping-criterion for ELM
   LREAL  =      F    real-space projection
   NLSPLINE    = F    spline interpolate recip. space projectors
   LCOMPAT=      F    compatible to vasp.4.4
   GGA_COMPAT  = T    GGA compatible to vasp.4.4-vasp.4.6
   LMAXPAW     = -100 max onsite density
   LMAXMIX     =    2 max onsite mixed and CHGCAR
   VOSKOWN=      0    Vosko Wilk Nusair interpolation
   ROPT   =    0.00000   0.00000
 Ionic relaxation
   EDIFFG = -.1E-01   stopping-criterion for IOM
[...]
     34      -9.2053      1.00000
     35      -9.2053      1.00000
     36      -9.1114      1.00000
     37      -8.8237      1.00000
     38      -8.8237      1.00000
     39      -8.2432      1.00000
     40      -8.0488      1.00000
     41      -8.0487      1.00000
     42      -7.7681      1.00000
     43      -7.7658      1.00000
     44      -7.7658      1.00000
     45      -7.7626      1.00000
     46      -7.7626      1.00000
     47      -7.2400      1.00000
     48      -7.0798      1.00000
     49      -7.0703      1.00000
     50      -7.0700      1.00000
     51      -7.0700      1.00000
     52      -6.2997      1.00000
     53      -6.2997      1.00000
     54      -5.5112      1.00000
     55      -5.5111      1.00000
     56      -5.3472      1.00000
     57      -5.2207      1.00000
     58      -5.2207      1.00000
     59      -5.2199      1.00000
     60      -5.0615      1.00000
[...]
    114       6.3519      0.00000
    115       6.3646      0.00000
    116       6.4299      0.00000
    117       6.4334      0.00000
    118       6.4719      0.00000
    119       6.4739      0.00000
    120       7.0579      0.00000
    121       7.1709      0.00000
    122       7.3244      0.00000
    123       7.3983      0.00000
    124       7.4435      0.00000
    125       9.6886      0.00000
    126       9.7944      0.00000
    127       9.9187      0.00000
    128       9.9526      0.00000

[...]

 k-point     3 :       0.3333    0.3333    0.0000
  band No.  band energies     occupation
      1     -21.3401      1.00000
      2     -21.3295      1.00000
      3     -21.1478      1.00000
      4     -20.2296      1.00000
      5     -20.2217      1.00000
      6     -20.0476      1.00000
      7     -19.3267      1.00000
      8     -19.3258      1.00000
      9     -19.3222      1.00000
     10     -19.3110      1.00000
     11     -19.2985      1.00000
     12     -18.8718      1.00000
     13     -18.4363      1.00000
     14     -18.4289      1.00000
     15     -18.1906      1.00000
     16     -17.3348      1.00000
     17     -12.6536      1.00000
     18     -12.5792      1.00000
     19     -12.4982      1.00000
     20     -11.9223      1.00000
     21     -11.7726      1.00000
     22     -11.7100      1.00000
     23     -11.7055      1.00000
     24     -11.7023      1.00000
     25     -11.4924      1.00000
     26     -11.2747      1.00000
     27     -11.1005      1.00000
     28      -9.7756      1.00000
     29      -9.6104      1.00000
     30      -9.6049      1.00000
     31      -9.5873      1.00000
     32      -9.3107      1.00000
     33      -9.2773      1.00000
     34      -8.8093      1.00000
     35      -8.8043      1.00000
     36      -8.5248      1.00000
     37      -8.3114      1.00000
     38      -8.3062      1.00000
     39      -8.3049      1.00000
     40      -8.2978      1.00000
     41      -8.1358      1.00000
     42      -8.1326      1.00000
     43      -8.0378      1.00000
     44      -7.6242      1.00000
     45      -7.5889      1.00000
     46      -7.3044      1.00000
     47      -7.2942      1.00000
     48      -7.2381      1.00000
     49      -6.8615      1.00000
     50      -6.6880      1.00000
     51      -6.6338      1.00000
     52      -6.2818      1.00000
     53      -6.2370      1.00000
     54      -6.2036      1.00000
     55      -5.9977      1.00000
     56      -5.9961      1.00000
     57      -5.9914      1.00000
     58      -5.7793      1.00000
     59      -5.2542      1.00000
     60      -5.0879      1.00000
[...]
    114       6.6033      0.00000
    115       6.7144      0.00000
    116       6.7266      0.00000
    117       7.1176      0.00000
    118       7.2458      0.00000
    119       7.3886      0.00000
    120       7.4270      0.00000
    121       7.4911      0.00000
    122       7.6046      0.00000
    123       7.6757      0.00000
    124       8.1495      0.00000
    125       8.4025      0.00000
    126       8.4074      0.00000
    127       8.8479      0.00000
    128       9.1274      0.00000
 Fermi energy:        -3.6520651546

 spin component 2

[...]

 k-point     3 :       0.3333    0.3333    0.0000
  band No.  band energies     occupation
      1     -21.3401      1.00000
      2     -21.3295      1.00000
      3     -21.1478      1.00000
      4     -20.2296      1.00000
      5     -20.2217      1.00000
      6     -20.0476      1.00000
      7     -19.3267      1.00000
      8     -19.3258      1.00000
      9     -19.3222      1.00000
     10     -19.3110      1.00000
     11     -19.2985      1.00000
     12     -18.8718      1.00000
     13     -18.4363      1.00000
     14     -18.4289      1.00000
     15     -18.1906      1.00000
     16     -17.3348      1.00000
     17     -12.6536      1.00000
     18     -12.5792      1.00000
     19     -12.4983      1.00000
     20     -11.9224      1.00000
     21     -11.7726      1.00000
     22     -11.7100      1.00000
     23     -11.7055      1.00000
     24     -11.7023      1.00000
     25     -11.4924      1.00000
     26     -11.2748      1.00000
     27     -11.1005      1.00000
     28      -9.7757      1.00000
     29      -9.6104      1.00000
     30      -9.6049      1.00000
     31      -9.5873      1.00000
     32      -9.3108      1.00000
     33      -9.2773      1.00000
     34      -8.8093      1.00000
     35      -8.8043      1.00000
     36      -8.5248      1.00000
     37      -8.3114      1.00000
     38      -8.3062      1.00000
     39      -8.3049      1.00000
     40      -8.2978      1.00000
     41      -8.1358      1.00000
     42      -8.1326      1.00000
     43      -8.0378      1.00000
     44      -7.6242      1.00000
     45      -7.5889      1.00000
     46      -7.3045      1.00000
     47      -7.2942      1.00000
     48      -7.2381      1.00000
     49      -6.8615      1.00000
     50      -6.6880      1.00000
     51      -6.6338      1.00000
     52      -6.2818      1.00000
     53      -6.2370      1.00000
     54      -6.2036      1.00000
     55      -5.9977      1.00000
     56      -5.9961      1.00000
     57      -5.9915      1.00000
     58      -5.7793      1.00000
     59      -5.2543      1.00000
     60      -5.0879      1.00000
[...]
    114       6.6238      0.00000
    115       6.6972      0.00000
    116       6.7219      0.00000
    117       6.7372      0.00000
    118       7.1142      0.00000
    119       7.2104      0.00000
    120       7.2417      0.00000
    121       7.3800      0.00000
    122       7.4002      0.00000
    123       7.4344      0.00000
    124       7.7065      0.00000
    125       7.7368      0.00000
    126       8.0798      0.00000
    127       8.3582      0.00000
    128       8.3818      0.00000

 soft charge-density along one line, spin component           1
         0         1         2         3         4         5         6         7         8         9
 total charge-density along one line

 soft charge-density along one line, spin component           2
         0         1         2         3         4         5         6         7         8         9
 total charge-density along one line

------------------------ aborting loop because EDIFF is reached ----------------------------------------

         DFTD3 V3.0 Rev 1
 IVDW         = 11
 DF pbe
 parameters
 VDW_S6       =    1.0000
 VDW_S8       =    0.7220
 VDW_SR       =    1.2170
 rs18     =    1.0000
 alpha6   =   14.0000
 alpha8   =   16.0000
 k1-k3    =   16.0000    1.3333   -4.0000
 VDW_RADIUS   =   50.2022 A
 VDW_CNRADIUS =   21.1671 A
 Edisp (eV)   -1.17611

 E6    (eV) :    -0.5984
 E8    (eV) :    -0.5777
 % E8        : 49.12

  FORCE on cell =-STRESS in cart. coord.  units (eV):
  Direction    XX          YY          ZZ          XY          YZ          ZX
  Alpha Z    69.43433    69.43433    69.43433
  Ewald   16636.40499 16636.40499-20913.72153    -0.00000    -0.00000    -0.00000
  Hartree 16608.49103 16608.49103-16121.82850    -0.00000    -0.00000    -0.00000
  E(xc)    -503.09503  -503.09503  -517.69978    -0.00000    -0.00000    -0.00000
  Local  -34638.33324-34638.33218 35409.08899     0.00000    -0.00000     0.00000
  n-local  -236.38434  -236.48014  -234.04491    -0.08221    -0.00071     0.00120
  augment    17.33232    17.33126    19.85515     0.00000    -0.00000     0.00000
  Kinetic  2042.20409  2043.44347  2282.05710     1.06961     0.01048    -0.01815
  Fock        0.00000     0.00000     0.00000     0.00000     0.00000     0.00000
  vdW        -0.81670    -0.81670    -0.01293     0.00000    -0.00000     0.00000
  Total      -4.19076    -4.19076    -6.87209     0.00000     0.00000     0.00000
  in kB      -5.11769    -5.11769    -8.39209     0.00000     0.00000     0.00000

 VOLUME and BASIS-vectors are now :
  energy-cutoff  :      500.00
  volume of cell :     1311.99
      direct lattice vectors                 reciprocal lattice vectors
     5.024856456 -8.703306683  0.000000000     0.099505330 -0.057449429  0.000000000
     5.024856456  8.703306683  0.000000000     0.099505330  0.057449429 -0.000000000
     0.000000000  0.000000000 15.000000000    -0.000000000  0.000000000  0.066666667

  length of vectors
    10.049712912 10.049712912 15.000000000     0.114898858  0.114898858  0.066666667

 FORCES acting on ions
    electron-ion (+dipol)            ewald-force                    non-local-force                 convergence-correction
   -.825E+00 -.227E+00 0.333E+01   0.761E+00 0.160E+00 -.355E+01   0.399E-01 0.170E-01 0.428E-01   0.271E-04 0.166E-04 0.839E-04
   0.463E-07 -.260E+01 0.698E+01   0.213E-13 0.260E+01 -.679E+01   0.295E-18 -.574E-01 -.357E-01   0.266E-13 0.556E-04 0.105E-03
   0.225E+01 0.130E+01 0.698E+01   -.225E+01 -.130E+01 -.679E+01   0.497E-01 0.287E-01 -.357E-01   -.482E-04 -.278E-04 0.105E-03
   0.375E-01 -.216E-01 0.243E+01   -.771E-01 0.445E-01 -.243E+01   0.656E-02 -.378E-02 0.686E-02   -.501E-05 0.289E-05 0.692E-04
   0.825E+00 -.227E+00 0.333E+01   -.761E+00 0.160E+00 -.355E+01   -.399E-01 0.170E-01 0.428E-01   -.271E-04 0.166E-04 0.839E-04
   0.216E+00 0.828E+00 0.333E+01   -.242E+00 -.739E+00 -.355E+01   -.522E-02 -.430E-01 0.428E-01   0.768E-06 -.318E-04 0.839E-04
   0.537E-07 0.333E+02 0.422E+02   0.333E-14 -.337E+02 -.383E+02   0.999E-18 -.904E+00 0.297E+00   0.224E-14 -.187E-03 0.189E-03
   0.156E-07 0.432E-01 0.243E+01   0.933E-14 -.891E-01 -.243E+01   0.467E-18 0.757E-02 0.686E-02   0.757E-14 -.578E-05 0.692E-04
   -.288E+02 -.166E+02 0.422E+02   0.292E+02 0.168E+02 -.383E+02   0.783E+00 0.452E+00 0.297E+00   0.162E-03 0.937E-04 0.189E-03
   -.375E-01 -.216E-01 0.243E+01   0.771E-01 0.445E-01 -.243E+01   -.656E-02 -.378E-02 0.686E-02   0.501E-05 0.289E-05 0.692E-04
   0.210E-08 -.371E-05 0.227E+01   0.426E-13 0.129E-10 -.221E+01   -.129E-17 0.540E-18 -.874E-02   -.353E-13 0.101E-08 0.683E-04
   -.216E+00 0.828E+00 0.333E+01   0.242E+00 -.739E+00 -.355E+01   0.522E-02 -.430E-01 0.428E-01   -.768E-06 -.318E-04 0.839E-04
   0.609E+00 -.601E+00 0.333E+01   -.519E+00 0.579E+00 -.355E+01   -.347E-01 0.260E-01 0.428E-01   -.279E-04 0.152E-04 0.839E-04
   -.225E+01 0.130E+01 0.698E+01   0.225E+01 -.130E+01 -.679E+01   -.497E-01 0.287E-01 -.357E-01   0.482E-04 -.278E-04 0.105E-03
   -.609E+00 -.601E+00 0.333E+01   0.519E+00 0.579E+00 -.355E+01   0.347E-01 0.260E-01 0.428E-01   0.279E-04 0.152E-04 0.839E-04
   0.288E+02 -.166E+02 0.422E+02   -.292E+02 0.168E+02 -.383E+02   -.783E+00 0.452E+00 0.297E+00   -.162E-03 0.937E-04 0.189E-03
   0.275E-07 -.977E-02 0.430E+01   0.142E-13 -.130E-10 -.437E+01   -.268E-18 0.383E-01 0.122E+00   -.664E-14 0.267E-04 0.121E-03
   0.377E+01 -.647E+01 0.174E+02   -.379E+01 0.657E+01 -.164E+02   -.313E-01 -.239E-02 -.181E+01   -.114E-03 0.489E-04 0.186E-03
   0.749E+01 -.271E-01 0.174E+02   -.759E+01 -.130E-10 -.164E+02   -.136E-01 0.283E-01 -.181E+01   -.993E-04 0.742E-04 0.186E-03
   -.584E+00 0.337E+00 0.467E+01   0.617E+00 -.356E+00 -.466E+01   0.123E-01 -.712E-02 0.409E-02   0.464E-04 -.268E-04 0.119E-03
   0.846E-02 0.489E-02 0.430E+01   -.711E-14 -.129E-10 -.437E+01   -.332E-01 -.191E-01 0.122E+00   -.231E-04 -.133E-04 0.121E-03
   0.372E+01 0.650E+01 0.174E+02   -.379E+01 -.657E+01 -.164E+02   0.177E-01 -.259E-01 -.181E+01   0.146E-04 -.123E-03 0.186E-03
   0.584E+00 0.337E+00 0.467E+01   -.617E+00 -.356E+00 -.466E+01   -.123E-01 -.712E-02 0.409E-02   -.464E-04 -.268E-04 0.119E-03
   -.431E-06 0.238E-05 -.288E+03   -.320E-13 -.554E-11 0.305E+03   0.558E-19 0.342E-19 -.253E+02   0.241E-13 0.179E-09 0.639E-03
   -.377E+01 -.647E+01 0.174E+02   0.379E+01 0.657E+01 -.164E+02   0.313E-01 -.239E-02 -.181E+01   0.114E-03 0.489E-04 0.186E-03
   -.846E-02 0.489E-02 0.430E+01   -.107E-13 -.130E-10 -.437E+01   0.332E-01 -.191E-01 0.122E+00   0.231E-04 -.133E-04 0.121E-03
   0.429E-07 0.717E+00 0.471E+01   -.284E-13 -.713E+00 -.466E+01   0.470E-18 -.174E-01 -.271E-01   -.391E-13 -.355E-04 0.128E-03
   -.372E+01 0.650E+01 0.174E+02   0.379E+01 -.657E+01 -.164E+02   -.177E-01 -.259E-01 -.181E+01   -.146E-04 -.123E-03 0.186E-03
   -.749E+01 -.271E-01 0.174E+02   0.759E+01 -.129E-10 -.164E+02   0.136E-01 0.283E-01 -.181E+01   0.993E-04 0.742E-04 0.186E-03
   -.621E+00 -.359E+00 0.471E+01   0.617E+00 0.356E+00 -.466E+01   0.151E-01 0.872E-02 -.271E-01   0.307E-04 0.177E-04 0.128E-03
   -.358E-08 -.675E+00 0.467E+01   -.338E-13 0.713E+00 -.466E+01   -.483E-19 0.142E-01 0.409E-02   0.457E-13 0.536E-04 0.119E-03
   0.621E+00 -.359E+00 0.471E+01   -.617E+00 0.356E+00 -.466E+01   -.151E-01 0.872E-02 -.271E-01   -.307E-04 0.177E-04 0.128E-03
   0.619E-06 -.214E-04 0.348E+02   -.303E-13 0.799E-14 0.622E-14   0.102E-15 -.503E-16 -.348E+02   0.317E-13 -.373E-07 0.452E-02

 POSITION                                       TOTAL-FORCE (eV/Angst)
      1.25621      0.72528      1.92682        -0.023426     -0.049541     -0.177783
      5.02486     -1.45055      1.92682        -0.000000     -0.053779      0.152095
      7.53728      2.90110      1.92682         0.046574      0.026889      0.152095
      3.76864     -3.62638      1.92682        -0.033103      0.019112      0.010762
      8.79350      0.72528      1.92682         0.023426     -0.049541     -0.177783
      6.28107      5.07693      1.92682        -0.031191      0.045058     -0.177783
      5.02486      2.90110      1.92682         0.000000     -1.307964      4.193352
      5.02486     -5.80220      1.92682        -0.000000     -0.038224      0.010762
      3.76864      0.72528      1.92682         1.132730      0.653982      4.193352
      6.28107     -3.62638      1.92682         0.033103      0.019112      0.010762
      5.02486      7.25276      1.92682        -0.000000     -0.000000      0.053206
      3.76864      5.07693      1.92682         0.031191      0.045058     -0.177783
      7.53728     -1.45055      1.92682         0.054617      0.004484     -0.177783
      2.51243      2.90110      1.92682        -0.046574      0.026889      0.152095
      2.51243     -1.45055      1.92682        -0.054617      0.004484     -0.177783
      6.28107      0.72528      1.92682        -1.132730      0.653982      4.193352
      5.02486     -7.25276      1.92682        -0.000000      0.028538      0.056734
      6.28107     -0.72528      1.92682        -0.056499      0.095234     -0.724160
      7.53728      1.45055      1.92682        -0.110724      0.001312     -0.724160
      6.28107     -5.07693      1.92682         0.044918     -0.025934      0.020121
      7.53728     -2.90110      1.92682        -0.024715     -0.014269      0.056734
      6.28107      3.62638      1.92682        -0.054226     -0.096546     -0.724160
      3.76864     -5.07693      1.92682        -0.044918     -0.025934      0.020121
      5.02486      1.45055      2.72682        -0.000000     -0.000000     -8.022321
      3.76864     -0.72528      1.92682         0.056499      0.095234     -0.724160
      2.51243     -2.90110      1.92682         0.024715     -0.014269      0.056734
      5.02486      5.80220      1.92682        -0.000000     -0.012644      0.027192
      3.76864      3.62638      1.92682         0.054226     -0.096546     -0.724160
      2.51243      1.45055      1.92682         0.110724      0.001312     -0.724160
      1.25621     -0.72528      1.92682         0.010950      0.006322      0.027192
      5.02486     -2.90110      1.92682        -0.000000      0.051867      0.020121
      8.79350     -0.72528      1.92682        -0.010950      0.006322      0.027192
    total drift:                                0.000001     -0.000021     -0.005477

  FREE ENERGIE OF THE ION-ELECTRON SYSTEM (eV)
  free  energy   TOTEN  =      -279.61449541 eV

  energy  without entropy=     -279.61449541  energy(sigma->0) =     -279.61449541